************************************************************************
file with basedata            : md375_.bas
initial value random generator: 1101457351
************************************************************************
projects                      :  1
jobs (incl. supersource/sink ):  22
horizon                       :  151
RESOURCES
  - renewable                 :  2   R
  - nonrenewable              :  2   N
  - doubly constrained        :  0   D
************************************************************************
PROJECT INFORMATION:
pronr.  #jobs rel.date duedate tardcost  MPM-Time
    1     20      0       28       11       28
************************************************************************
PRECEDENCE RELATIONS:
jobnr.    #modes  #successors   successors
   1        1          3           2   3   4
   2        3          3           7   9  11
   3        3          3           9  12  18
   4        3          3           5   6  18
   5        3          3           8  10  15
   6        3          1          15
   7        3          2          10  14
   8        3          3           9  11  12
   9        3          2          19  20
  10        3          2          16  19
  11        3          2          14  17
  12        3          1          13
  13        3          2          16  17
  14        3          1          16
  15        3          1          21
  16        3          2          20  21
  17        3          1          19
  18        3          2          20  21
  19        3          1          22
  20        3          1          22
  21        3          1          22
  22        1          0        
************************************************************************
REQUESTS/DURATIONS:
jobnr. mode duration  R 1  R 2  N 1  N 2
------------------------------------------------------------------------
  1      1     0       0    0    0    0
  2      1     2      10    4    4    9
         2     8       8    4    1    5
         3     8       7    2    4    8
  3      1     3       8   10    9    7
         2     3       7   10   10    9
         3    10       6    9    8    5
  4      1     8       4    4    7    5
         2     8       6    4    1    4
         3     8       2    4    8    4
  5      1     5       3    7   10    6
         2     6       3    6    8    5
         3     9       1    5    7    4
  6      1     6       3   10    6    9
         2     8       2    2    6    7
         3     8       1    1    6    8
  7      1     7       8   10    9    5
         2     8       7    9    6    2
         3    10       4    9    5    2
  8      1     2       6    6    5    3
         2     6       3    6    4    3
         3     8       2    2    4    3
  9      1     2       9    5    5    5
         2     2       9    4    5    6
         3     3       9    2    5    3
 10      1     5       7    4    3    3
         2     5       7    3    5    3
         3     6       5    2    1    3
 11      1     1      10    7    5    7
         2     4      10    5    4    7
         3     5      10    2    3    7
 12      1     3       4    4    8    7
         2     6       3    3    7    5
         3     9       3    2    6    4
 13      1     1       7    7   10   10
         2     4       7    7   10    7
         3     9       5    7   10    6
 14      1     5       4    7    3    4
         2     9       3    4    2    3
         3    10       3    1    2    3
 15      1     2      10    9    9    4
         2     7       9    6    5    3
         3     8       9    5    3    2
 16      1     1       9    5    1    7
         2     3       8    4    1    6
         3     9       8    4    1    4
 17      1     1       6    8    6    5
         2     1       7    8    6    3
         3     2       4    7    4    2
 18      1     8       4    6    9   10
         2     8       4    7    8   10
         3    10       4    5    5   10
 19      1     1       9    4    6    7
         2     1      10    5    5    5
         3     3       5    4    4    3
 20      1     6       7    4    5    6
         2     7       6    4    5    5
         3     8       5    3    4    4
 21      1     4       6    9    9    4
         2     5       6    8    8    4
         3     8       6    8    7    4
 22      1     0       0    0    0    0
************************************************************************
RESOURCEAVAILABILITIES:
  R 1  R 2  N 1  N 2
   36   29  122  116
************************************************************************
MAXIMAL LAGS:
from  to  type  delay
    1   22   ES      0
    1    2   ES      0
    2   22   ES      0
    1    3   ES      0
    3   22   ES      0
    1    4   ES      0
    4   22   ES      0
    1    5   ES      0
    5   22   ES      0
    1    6   ES      0
    6   22   ES      0
    1    7   ES      0
    7   22   ES      0
    1    8   ES      0
    8   22   ES      0
    1    9   ES      0
    9   22   ES      0
    1   10   ES      0
   10   22   ES      0
    1   11   ES      0
   11   22   ES      0
    1   12   ES      0
   12   22   ES      0
    1   13   ES      0
   13   22   ES      0
    1   14   ES      0
   14   22   ES      0
    1   15   ES      0
   15   22   ES      0
    1   16   ES      0
   16   22   ES      0
    1   17   ES      0
   17   22   ES      0
    1   18   ES      0
   18   22   ES      0
    1   19   ES      0
   19   22   ES      0
    1   20   ES      0
   20   22   ES      0
    1   21   ES      0
   21   22   ES      0
    1   22   ES      0
    2    7   SS    -12
    2    7   SE     10
    2    7   ES    -10
    2    7   EE     -1
    2    9   SS     -1
    2    9   SE     -3
    2    9   ES     -4
    2    9   EE      7
    2   11   SS     -3
    2   11   SE    -11
    2   11   ES      8
    2   11   EE      7
    3    9   SS     10
    3    9   SE      7
    3    9   ES      5
    3    9   EE     -2
    3   12   SS      2
    3   12   SE     -2
    3   12   ES     -8
    3   12   EE     -1
    3   18   SS      0
    3   18   SE      8
    3   18   ES     -6
    3   18   EE      3
    4    5   SS     -4
    4    5   SE     -4
    4    5   ES     11
    4    5   EE      5
    4    6   SS     -4
    4    6   SE     -1
    4    6   ES     -2
    4    6   EE     11
    4   18   SS     -2
    4   18   SE     10
    4   18   ES      9
    4   18   EE      8
    5    8   SS      3
    5    8   SE      0
    5    8   ES     12
    5    8   EE      9
    5   10   SS      1
    5   10   SE     -6
    5   10   ES     -5
    5   10   EE     -2
    5   15   SS     10
    5   15   SE     -4
    5   15   ES     -7
    5   15   EE    -12
    6   15   SS     10
    6   15   SE     -2
    6   15   ES    -12
    6   15   EE      6
    7   10   SS     -2
    7   10   SE     -6
    7   10   ES     12
    7   10   EE    -12
    7   14   SS      9
    7   14   SE      2
    7   14   ES     -7
    7   14   EE      3
    8    9   SS     11
    8    9   SE      3
    8    9   ES     -8
    8    9   EE      4
    8   11   SS      8
    8   11   SE     10
    8   11   ES     10
    8   11   EE     12
    8   12   SS     -8
    8   12   SE      3
   12    8   SE      0
    8   12   ES      0
    8   12   EE      6
    9   19   SS     -2
    9   19   SE      9
    9   19   ES      4
    9   19   EE      5
    9   20   SS      3
    9   20   SE    -11
    9   20   ES     10
    9   20   EE      5
   10   16   SS      6
   10   16   SE     -4
   10   16   ES     -7
   10   16   EE     11
   10   19   SS      8
   10   19   SE      1
   10   19   ES      0
   10   19   EE    -12
   11   14   SS     -5
   11   14   SE      1
   11   14   ES      1
   11   14   EE      7
   11   17   SS      5
   11   17   SE    -12
   11   17   ES      8
   11   17   EE     -7
   12   13   SS     12
   12   13   SE      2
   12   13   ES      1
   12   13   EE      9
   13   16   SS     -3
   13   16   SE     -4
   13   16   ES      5
   13   16   EE     -7
   13   17   SS      8
   13   17   SE     12
   13   17   ES      7
   13   17   EE     -3
   14   16   SS     -6
   14   16   SE     10
   14   16   ES     -1
   14   16   EE    -11
   15   21   SS    -11
   15   21   SE      3
   15   21   ES      7
   15   21   EE      0
   16   20   SS     -9
   16   20   SE      1
   16   20   ES     -1
   16   20   EE     -5
   16   21   SS      3
   16   21   SE      3
   16   21   ES     12
   16   21   EE      2
   17   19   SS      9
   17   19   SE      4
   17   19   ES     -4
   17   19   EE     -8
   18   20   SS     -4
   18   20   SE      3
   18   20   ES     -9
   18   20   EE      1
   18   21   SS     -3
   18   21   SE      6
   18   21   ES    -10
   18   21   EE      6
************************************************************************
